Nb of jobs, Nb of Machines, Time seed, Machine seed, Upper bound, Lower bound
3,6,-1,-1,-1,-1
Times
85,80,79,22,39,54
24,21,78,49,56,88
64,53,75,48,65,21
Machines
4,1,6,3,5,2
4,1,6,5,3,2
4,6,3,1,2,5
